BAYES
361
2 2 2 2 2 2 2 2 2 2 2 2 2 2 2 2 2 2 2 2 2 2 2 2 2 2 2 2 2 2 2 2 2 2 2 2 2 2 2 2 2 2 2 2 2 2 2 2 2 2 2 2 2 2 2 2 2 2 2 2 2 2 2 2 2 2 2 2 2 2 2 2 2 2 2 2 2 2 2 2 2 2 2 2 2 2 2 2 2 2 2 2 2 2 2 2 2 2 2 2 2 2 2 2 2 2 2 2 2 2 2 2 2 2 2 2 2 2 2 2 2 2 2 2 2 2 2 2 2 2 2 2 2 2 2 2 2 2 2 2 2 2 2 2 2 2 2 2 2 2 2 2 2 2 2 2 2 2 2 2 2 2 2 2 2 2 2 2 2 2 2 2 2 2 2 2 2 2 2 2 2 2 2 2 2 2 2 2 2 2 2 2 2 2 2 2 2 2 2 2 2 2 2 2 2 2 2 2 2 2 2 2 2 2 2 2 2 2 2 2 2 2 2 2 2 2 2 2 2 2 2 2 2 2 2 2 2 2 2 2 2 2 2 2 2 2 2 2 2 2 2 2 2 2 2 2 2 2 2 2 2 2 2 2 2 2 2 2 2 2 2 2 2 2 2 2 2 2 2 2 2 2 2 2 2 2 2 2 2 2 2 2 2 2 2 2 2 2 2 2 2 2 2 2 2 2 2 2 2 2 2 2 2 2 2 2 2 2 2 2 2 2 2 2 2 2 2 2 2 2 2 2 2 2 2 2 2 2 2 2 2 2 2 2 2 2 2 2 2 2 2 2 2 2 2 2 2 2 2 2 2
361
1 0
2 0 1
2 1 2
2 2 3
2 3 4
2 4 5
2 5 6
2 6 7
2 7 8
2 8 9
2 9 10
2 10 11
2 11 12
2 12 13
2 13 14
2 14 15
2 15 16
2 16 17
2 17 18
2 0 19
3 1 19 20
3 2 20 21
3 3 21 22
3 4 22 23
3 5 23 24
3 6 24 25
3 7 25 26
3 8 26 27
3 9 27 28
3 10 28 29
3 11 29 30
3 12 30 31
3 13 31 32
3 14 32 33
3 15 33 34
3 16 34 35
3 17 35 36
3 18 36 37
2 19 38
3 20 38 39
3 21 39 40
3 22 40 41
3 23 41 42
3 24 42 43
3 25 43 44
3 26 44 45
3 27 45 46
3 28 46 47
3 29 47 48
3 30 48 49
3 31 49 50
3 32 50 51
3 33 51 52
3 34 52 53
3 35 53 54
3 36 54 55
3 37 55 56
2 38 57
3 39 57 58
3 40 58 59
3 41 59 60
3 42 60 61
3 43 61 62
3 44 62 63
3 45 63 64
3 46 64 65
3 47 65 66
3 48 66 67
3 49 67 68
3 50 68 69
3 51 69 70
3 52 70 71
3 53 71 72
3 54 72 73
3 55 73 74
3 56 74 75
2 57 76
3 58 76 77
3 59 77 78
3 60 78 79
3 61 79 80
3 62 80 81
3 63 81 82
3 64 82 83
3 65 83 84
3 66 84 85
3 67 85 86
3 68 86 87
3 69 87 88
3 70 88 89
3 71 89 90
3 72 90 91
3 73 91 92
3 74 92 93
3 75 93 94
2 76 95
3 77 95 96
3 78 96 97
3 79 97 98
3 80 98 99
3 81 99 100
3 82 100 101
3 83 101 102
3 84 102 103
3 85 103 104
3 86 104 105
3 87 105 106
3 88 106 107
3 89 107 108
3 90 108 109
3 91 109 110
3 92 110 111
3 93 111 112
3 94 112 113
2 95 114
3 96 114 115
3 97 115 116
3 98 116 117
3 99 117 118
3 100 118 119
3 101 119 120
3 102 120 121
3 103 121 122
3 104 122 123
3 105 123 124
3 106 124 125
3 107 125 126
3 108 126 127
3 109 127 128
3 110 128 129
3 111 129 130
3 112 130 131
3 113 131 132
2 114 133
3 115 133 134
3 116 134 135
3 117 135 136
3 118 136 137
3 119 137 138
3 120 138 139
3 121 139 140
3 122 140 141
3 123 141 142
3 124 142 143
3 125 143 144
3 126 144 145
3 127 145 146
3 128 146 147
3 129 147 148
3 130 148 149
3 131 149 150
3 132 150 151
2 133 152
3 134 152 153
3 135 153 154
3 136 154 155
3 137 155 156
3 138 156 157
3 139 157 158
3 140 158 159
3 141 159 160
3 142 160 161
3 143 161 162
3 144 162 163
3 145 163 164
3 146 164 165
3 147 165 166
3 148 166 167
3 149 167 168
3 150 168 169
3 151 169 170
2 152 171
3 153 171 172
3 154 172 173
3 155 173 174
3 156 174 175
3 157 175 176
3 158 176 177
3 159 177 178
3 160 178 179
3 161 179 180
3 162 180 181
3 163 181 182
3 164 182 183
3 165 183 184
3 166 184 185
3 167 185 186
3 168 186 187
3 169 187 188
3 170 188 189
2 171 190
3 172 190 191
3 173 191 192
3 174 192 193
3 175 193 194
3 176 194 195
3 177 195 196
3 178 196 197
3 179 197 198
3 180 198 199
3 181 199 200
3 182 200 201
3 183 201 202
3 184 202 203
3 185 203 204
3 186 204 205
3 187 205 206
3 188 206 207
3 189 207 208
2 190 209
3 191 209 210
3 192 210 211
3 193 211 212
3 194 212 213
3 195 213 214
3 196 214 215
3 197 215 216
3 198 216 217
3 199 217 218
3 200 218 219
3 201 219 220
3 202 220 221
3 203 221 222
3 204 222 223
3 205 223 224
3 206 224 225
3 207 225 226
3 208 226 227
2 209 228
3 210 228 229
3 211 229 230
3 212 230 231
3 213 231 232
3 214 232 233
3 215 233 234
3 216 234 235
3 217 235 236
3 218 236 237
3 219 237 238
3 220 238 239
3 221 239 240
3 222 240 241
3 223 241 242
3 224 242 243
3 225 243 244
3 226 244 245
3 227 245 246
2 228 247
3 229 247 248
3 230 248 249
3 231 249 250
3 232 250 251
3 233 251 252
3 234 252 253
3 235 253 254
3 236 254 255
3 237 255 256
3 238 256 257
3 239 257 258
3 240 258 259
3 241 259 260
3 242 260 261
3 243 261 262
3 244 262 263
3 245 263 264
3 246 264 265
2 247 266
3 248 266 267
3 249 267 268
3 250 268 269
3 251 269 270
3 252 270 271
3 253 271 272
3 254 272 273
3 255 273 274
3 256 274 275
3 257 275 276
3 258 276 277
3 259 277 278
3 260 278 279
3 261 279 280
3 262 280 281
3 263 281 282
3 264 282 283
3 265 283 284
2 266 285
3 267 285 286
3 268 286 287
3 269 287 288
3 270 288 289
3 271 289 290
3 272 290 291
3 273 291 292
3 274 292 293
3 275 293 294
3 276 294 295
3 277 295 296
3 278 296 297
3 279 297 298
3 280 298 299
3 281 299 300
3 282 300 301
3 283 301 302
3 284 302 303
2 285 304
3 286 304 305
3 287 305 306
3 288 306 307
3 289 307 308
3 290 308 309
3 291 309 310
3 292 310 311
3 293 311 312
3 294 312 313
3 295 313 314
3 296 314 315
3 297 315 316
3 298 316 317
3 299 317 318
3 300 318 319
3 301 319 320
3 302 320 321
3 303 321 322
2 304 323
3 305 323 324
3 306 324 325
3 307 325 326
3 308 326 327
3 309 327 328
3 310 328 329
3 311 329 330
3 312 330 331
3 313 331 332
3 314 332 333
3 315 333 334
3 316 334 335
3 317 335 336
3 318 336 337
3 319 337 338
3 320 338 339
3 321 339 340
3 322 340 341
2 323 342
3 324 342 343
3 325 343 344
3 326 344 345
3 327 345 346
3 328 346 347
3 329 347 348
3 330 348 349
3 331 349 350
3 332 350 351
3 333 351 352
3 334 352 353
3 335 353 354
3 336 354 355
3 337 355 356
3 338 356 357
3 339 357 358
3 340 358 359
3 341 359 360

2
0.222672 0.777328
4
0.685658 0.314342 0.205608 0.794392
4
0.0 1.0 1.0 0.0
4
0.638356 0.361644 0.828405 0.171595
4
0.0 1.0 1.0 0.0
4
0.0 1.0 1.0 0.0
4
1.0 0.0 0.0 1.0
4
0.173183 0.826817 0.377335 0.622665
4
0.0 1.0 1.0 0.0
4
1.0 0.0 0.0 1.0
4
0.188759 0.811241 0.837951 0.162049
4
0.0 1.0 1.0 0.0
4
0.0 1.0 1.0 0.0
4
1.0 0.0 0.0 1.0
4
0.650457 0.349543 0.603133 0.396867
4
0.822524 0.177476 0.335059 0.664941
4
0.46088 0.53912 0.163465 0.836535
4
0.166687 0.833313 0.323851 0.676149
4
0.0 1.0 1.0 0.0
4
0.0 1.0 1.0 0.0
8
0.0 1.0 1.0 0.0 1.0 0.0 1.0 0.0
8
0.727213 0.272787 0.0301025 0.969898 0.399538 0.600462 0.941566 0.0584343
8
1.0 0.0 0.0 1.0 1.0 0.0 1.0 0.0
8
0.0 1.0 0.0 1.0 0.0 1.0 1.0 0.0
8
0.773192 0.226808 0.264848 0.735152 0.70555 0.29445 0.630068 0.369932
8
0.0 1.0 1.0 0.0 0.0 1.0 0.0 1.0
8
0.129438 0.870562 0.837557 0.162443 0.450694 0.549306 0.862193 0.137807
8
0.0122809 0.987719 0.589407 0.410593 0.709002 0.290998 0.411819 0.588181
8
0.00346762 0.996532 0.0982375 0.901762 0.0132059 0.986794 0.334455 0.665545
8
0.258778 0.741222 0.315899 0.684101 0.909157 0.0908428 0.473298 0.526702
8
1.0 0.0 1.0 0.0 0.0 1.0 0.0 1.0
8
0.816249 0.183751 0.186193 0.813807 0.669955 0.330045 0.510144 0.489856
8
0.0 1.0 1.0 0.0 1.0 0.0 1.0 0.0
8
0.947461 0.0525385 0.672031 0.327969 0.0911832 0.908817 0.656464 0.343536
8
0.0 1.0 0.0 1.0 1.0 0.0 1.0 0.0
8
0.884218 0.115782 0.89414 0.10586 0.310286 0.689714 0.793375 0.206625
8
0.0 1.0 0.0 1.0 0.0 1.0 1.0 0.0
8
1.0 0.0 0.0 1.0 0.0 1.0 1.0 0.0
4
1.0 0.0 0.0 1.0
8
1.0 0.0 0.0 1.0 0.0 1.0 0.0 1.0
8
0.0 1.0 1.0 0.0 1.0 0.0 0.0 1.0
8
0.551027 0.448973 0.967214 0.0327864 0.631321 0.368679 0.545414 0.454586
8
0.525461 0.474539 0.855699 0.144301 0.644807 0.355193 0.892898 0.107102
8
0.0 1.0 0.0 1.0 0.0 1.0 1.0 0.0
8
0.87844 0.12156 0.157749 0.842251 0.873097 0.126903 0.897049 0.102951
8
0.653941 0.346059 0.18422 0.81578 0.55649 0.44351 0.936561 0.0634387
8
1.0 0.0 0.0 1.0 0.0 1.0 0.0 1.0
8
0.0101069 0.989893 0.937645 0.0623552 0.406389 0.593611 0.861539 0.138461
8
0.0 1.0 1.0 0.0 0.0 1.0 1.0 0.0
8
0.0 1.0 0.0 1.0 0.0 1.0 1.0 0.0
8
1.0 0.0 1.0 0.0 0.0 1.0 1.0 0.0
8
0.907534 0.092466 0.646317 0.353683 0.101623 0.898377 0.844095 0.155905
8
0.0 1.0 1.0 0.0 1.0 0.0 0.0 1.0
8
1.0 0.0 1.0 0.0 1.0 0.0 0.0 1.0
8
0.0 1.0 0.0 1.0 0.0 1.0 1.0 0.0
8
0.0 1.0 1.0 0.0 0.0 1.0 0.0 1.0
8
0.481667 0.518333 0.427701 0.572299 0.958393 0.0416072 0.73526 0.26474
4
0.503525 0.496475 0.642794 0.357206
8
0.605148 0.394852 0.48689 0.51311 0.601283 0.398717 0.964538 0.0354618
8
0.9764 0.0236 0.366822 0.633178 0.102134 0.897866 0.212493 0.787507
8
0.500563 0.499437 0.854974 0.145026 0.0531408 0.946859 0.362097 0.637903
8
0.833416 0.166584 0.579635 0.420365 0.212056 0.787944 0.00946218 0.990538
8
0.313228 0.686772 0.872116 0.127884 0.600507 0.399493 0.794895 0.205105
8
1.0 0.0 0.0 1.0 1.0 0.0 0.0 1.0
8
0.0 1.0 1.0 0.0 1.0 0.0 1.0 0.0
8
0.301189 0.698811 0.303412 0.696588 0.998933 0.00106691 0.403323 0.596677
8
0.778145 0.221855 0.903886 0.0961139 0.370879 0.629121 0.831286 0.168714
8
1.0 0.0 0.0 1.0 0.0 1.0 1.0 0.0
8
0.50562 0.49438 0.655708 0.344292 0.546279 0.453721 0.106127 0.893873
8
1.0 0.0 1.0 0.0 1.0 0.0 0.0 1.0
8
0.153708 0.846292 0.76144 0.23856 0.395025 0.604975 0.813548 0.186452
8
0.0 1.0 0.0 1.0 1.0 0.0 1.0 0.0
8
0.90777 0.0922303 0.804214 0.195786 0.421947 0.578053 0.278649 0.721351
8
0.68793 0.31207 0.409073 0.590927 0.300202 0.699798 0.533548 0.466452
8
0.974365 0.0256349 0.0391679 0.960832 0.407261 0.592739 0.520645 0.479355
8
1.0 0.0 1.0 0.0 0.0 1.0 0.0 1.0
4
1.0 0.0 0.0 1.0
8
0.163893 0.836107 0.932798 0.0672019 0.805878 0.194122 0.252345 0.747655
8
0.920616 0.0793844 0.64421 0.35579 0.986004 0.0139957 0.438676 0.561324
8
0.790219 0.209781 0.860623 0.139377 0.830629 0.169371 0.425719 0.574281
8
0.239702 0.760298 0.72592 0.27408 0.0821004 0.9179 0.991255 0.00874519
8
0.121268 0.878732 0.398516 0.601484 0.22093 0.77907 0.266563 0.733437
8
1.0 0.0 0.0 1.0 1.0 0.0 1.0 0.0
8
0.0873327 0.912667 0.154016 0.845984 0.547456 0.452544 0.893211 0.106789
8
0.0 1.0 0.0 1.0 1.0 0.0 1.0 0.0
8
0.0 1.0 0.0 1.0 1.0 0.0 0.0 1.0
8
0.661678 0.338322 0.672881 0.327119 0.435253 0.564747 0.743779 0.256221
8
0.135538 0.864462 0.865047 0.134953 0.0626519 0.937348 0.356468 0.643532
8
0.0 1.0 1.0 0.0 1.0 0.0 1.0 0.0
8
0.823152 0.176848 0.501366 0.498634 0.0882791 0.911721 0.370608 0.629392
8
1.0 0.0 0.0 1.0 1.0 0.0 0.0 1.0
8
0.0 1.0 1.0 0.0 0.0 1.0 1.0 0.0
8
0.364339 0.635661 0.235711 0.764289 0.253823 0.746177 0.799592 0.200408
8
0.917959 0.0820407 0.93513 0.0648696 0.844536 0.155464 0.980611 0.0193888
8
0.0 1.0 0.0 1.0 1.0 0.0 1.0 0.0
4
0.170002 0.829998 0.00779334 0.992207
8
0.0 1.0 0.0 1.0 0.0 1.0 1.0 0.0
8
1.0 0.0 0.0 1.0 1.0 0.0 1.0 0.0
8
1.0 0.0 0.0 1.0 0.0 1.0 1.0 0.0
8
1.0 0.0 1.0 0.0 1.0 0.0 0.0 1.0
8
0.0 1.0 0.0 1.0 1.0 0.0 0.0 1.0
8
0.0 1.0 1.0 0.0 0.0 1.0 0.0 1.0
8
0.0 1.0 1.0 0.0 0.0 1.0 0.0 1.0
8
0.835239 0.164761 0.388535 0.611465 0.343877 0.656123 0.114171 0.885829
8
0.626678 0.373322 0.967136 0.0328643 0.861266 0.138734 0.273818 0.726182
8
0.0 1.0 1.0 0.0 0.0 1.0 0.0 1.0
8
0.0 1.0 1.0 0.0 1.0 0.0 0.0 1.0
8
0.685073 0.314927 0.999012 0.000988012 0.191199 0.808801 0.764274 0.235726
8
0.0 1.0 1.0 0.0 0.0 1.0 0.0 1.0
8
0.0 1.0 0.0 1.0 1.0 0.0 0.0 1.0
8
0.0 1.0 0.0 1.0 1.0 0.0 0.0 1.0
8
0.418316 0.581684 0.220982 0.779018 0.712339 0.287661 0.758861 0.241139
8
0.0 1.0 1.0 0.0 0.0 1.0 0.0 1.0
8
0.0 1.0 0.0 1.0 0.0 1.0 1.0 0.0
4
0.0672757 0.932724 0.65037 0.34963
8
0.0 1.0 0.0 1.0 1.0 0.0 1.0 0.0
8
1.0 0.0 1.0 0.0 1.0 0.0 0.0 1.0
8
0.0 1.0 1.0 0.0 0.0 1.0 0.0 1.0
8
1.0 0.0 1.0 0.0 1.0 0.0 0.0 1.0
8
0.847833 0.152167 0.304847 0.695153 0.630304 0.369696 0.316317 0.683683
8
0.384149 0.615851 0.383593 0.616407 0.503831 0.496169 0.67797 0.32203
8
0.0 1.0 1.0 0.0 1.0 0.0 1.0 0.0
8
0.0 1.0 0.0 1.0 0.0 1.0 1.0 0.0
8
0.630965 0.369035 0.954698 0.0453023 0.255716 0.744284 0.728811 0.271189
8
0.0 1.0 1.0 0.0 0.0 1.0 0.0 1.0
8
0.726859 0.273141 0.966009 0.0339909 0.975403 0.0245965 0.357163 0.642837
8
1.0 0.0 0.0 1.0 0.0 1.0 1.0 0.0
8
0.0 1.0 0.0 1.0 1.0 0.0 0.0 1.0
8
1.0 0.0 0.0 1.0 1.0 0.0 1.0 0.0
8
0.779231 0.220769 0.409868 0.590132 0.924076 0.0759239 0.0349463 0.965054
8
0.0 1.0 1.0 0.0 1.0 0.0 1.0 0.0
8
0.959286 0.0407142 0.908938 0.0910624 0.666759 0.333241 0.934689 0.0653107
8
1.0 0.0 1.0 0.0 0.0 1.0 1.0 0.0
4
0.0 1.0 1.0 0.0
8
0.0 1.0 1.0 0.0 0.0 1.0 1.0 0.0
8
0.0 1.0 1.0 0.0 0.0 1.0 0.0 1.0
8
0.0 1.0 0.0 1.0 1.0 0.0 1.0 0.0
8
0.0 1.0 0.0 1.0 1.0 0.0 0.0 1.0
8
0.513971 0.486029 0.0447668 0.955233 0.608781 0.391219 0.780072 0.219928
8
0.372335 0.627665 0.787484 0.212516 0.608855 0.391145 0.468583 0.531417
8
0.0 1.0 1.0 0.0 0.0 1.0 0.0 1.0
8
1.0 0.0 0.0 1.0 1.0 0.0 1.0 0.0
8
0.551565 0.448435 0.454065 0.545935 0.902754 0.0972459 0.977643 0.0223573
8
0.580012 0.419988 0.692449 0.307551 0.482054 0.517946 0.958019 0.0419806
8
0.0 1.0 0.0 1.0 1.0 0.0 0.0 1.0
8
0.347657 0.652343 0.563581 0.436419 0.605493 0.394507 0.81624 0.18376
8
0.562145 0.437855 0.0601259 0.939874 0.0657665 0.934234 0.800788 0.199212
8
0.452401 0.547599 0.156961 0.843039 0.276286 0.723714 0.716568 0.283432
8
0.0843563 0.915644 0.268133 0.731867 0.0541071 0.945893 0.98711 0.0128897
8
1.0 0.0 0.0 1.0 1.0 0.0 0.0 1.0
8
0.304765 0.695235 0.409207 0.590793 0.527928 0.472072 0.280088 0.719912
8
1.0 0.0 0.0 1.0 1.0 0.0 1.0 0.0
4
1.0 0.0 0.0 1.0
8
0.50411 0.49589 0.592412 0.407588 0.492993 0.507007 0.0320623 0.967938
8
1.0 0.0 0.0 1.0 0.0 1.0 0.0 1.0
8
1.0 0.0 1.0 0.0 0.0 1.0 0.0 1.0
8
0.213515 0.786485 0.648412 0.351588 0.472078 0.527922 0.51828 0.48172
8
0.0 1.0 0.0 1.0 0.0 1.0 1.0 0.0
8
1.0 0.0 0.0 1.0 1.0 0.0 1.0 0.0
8
0.0 1.0 1.0 0.0 0.0 1.0 1.0 0.0
8
0.0 1.0 1.0 0.0 1.0 0.0 0.0 1.0
8
0.0 1.0 1.0 0.0 1.0 0.0 0.0 1.0
8
1.0 0.0 0.0 1.0 0.0 1.0 1.0 0.0
8
0.98514 0.0148599 0.906157 0.0938434 0.752026 0.247974 0.228063 0.771937
8
1.0 0.0 1.0 0.0 0.0 1.0 0.0 1.0
8
0.432195 0.567805 0.42244 0.57756 0.849188 0.150812 0.272023 0.727977
8
0.00486593 0.995134 0.761805 0.238195 0.543325 0.456675 0.921925 0.0780747
8
0.650645 0.349355 0.868499 0.131501 0.545461 0.454539 0.137781 0.862219
8
0.0 1.0 0.0 1.0 1.0 0.0 0.0 1.0
8
0.0 1.0 1.0 0.0 1.0 0.0 1.0 0.0
8
0.814889 0.185111 0.409565 0.590435 0.185165 0.814835 0.900248 0.0997521
4
1.0 0.0 0.0 1.0
8
0.0 1.0 1.0 0.0 0.0 1.0 1.0 0.0
8
0.36627 0.63373 0.252273 0.747727 0.699466 0.300534 0.867852 0.132148
8
0.567965 0.432035 0.413312 0.586688 0.0406989 0.959301 0.658328 0.341672
8
1.0 0.0 0.0 1.0 0.0 1.0 1.0 0.0
8
0.727207 0.272793 0.474715 0.525285 0.894896 0.105104 0.692501 0.307499
8
1.0 0.0 0.0 1.0 1.0 0.0 0.0 1.0
8
0.522295 0.477705 0.6425 0.3575 0.573828 0.426172 0.12676 0.87324
8
0.0 1.0 1.0 0.0 1.0 0.0 0.0 1.0
8
0.0 1.0 1.0 0.0 1.0 0.0 0.0 1.0
8
0.0 1.0 1.0 0.0 1.0 0.0 0.0 1.0
8
0.0 1.0 0.0 1.0 1.0 0.0 0.0 1.0
8
1.0 0.0 1.0 0.0 0.0 1.0 0.0 1.0
8
0.0 1.0 0.0 1.0 0.0 1.0 1.0 0.0
8
0.0802358 0.919764 0.0257765 0.974223 0.346702 0.653298 0.683957 0.316043
8
0.0 1.0 1.0 0.0 0.0 1.0 1.0 0.0
8
0.972543 0.0274569 0.493856 0.506144 0.897825 0.102175 0.433742 0.566258
8
0.0 1.0 1.0 0.0 0.0 1.0 1.0 0.0
8
0.646926 0.353074 0.888197 0.111803 0.902002 0.0979982 0.946352 0.0536481
4
0.0 1.0 1.0 0.0
8
1.0 0.0 0.0 1.0 1.0 0.0 1.0 0.0
8
0.747114 0.252886 0.0200995 0.9799 0.481269 0.518731 0.823727 0.176273
8
0.671866 0.328134 0.51914 0.48086 0.209463 0.790537 0.4098 0.5902
8
1.0 0.0 1.0 0.0 0.0 1.0 1.0 0.0
8
1.0 0.0 1.0 0.0 0.0 1.0 1.0 0.0
8
1.0 0.0 1.0 0.0 1.0 0.0 0.0 1.0
8
0.0646014 0.935399 0.130063 0.869937 0.669179 0.330821 0.785939 0.214061
8
0.46649 0.53351 0.533053 0.466947 0.82356 0.17644 0.947759 0.0522408
8
0.0 1.0 1.0 0.0 0.0 1.0 1.0 0.0
8
1.0 0.0 0.0 1.0 1.0 0.0 1.0 0.0
8
0.792947 0.207053 0.776866 0.223134 0.0876437 0.912356 0.122275 0.877725
8
0.158963 0.841037 0.339799 0.660201 0.802492 0.197508 0.176633 0.823367
8
0.754594 0.245406 0.241235 0.758765 0.780201 0.219799 0.423773 0.576227
8
1.0 0.0 1.0 0.0 0.0 1.0 1.0 0.0
8
0.917007 0.0829927 0.958465 0.0415351 0.457647 0.542353 0.792928 0.207072
8
0.487072 0.512928 0.160531 0.839469 0.183196 0.816804 0.824123 0.175877
8
0.0 1.0 1.0 0.0 1.0 0.0 1.0 0.0
8
0.0691038 0.930896 0.0930532 0.906947 0.0791444 0.920856 0.871595 0.128405
4
0.0 1.0 1.0 0.0
8
0.510921 0.489079 0.509483 0.490517 0.049962 0.950038 0.538095 0.461905
8
0.0 1.0 1.0 0.0 1.0 0.0 1.0 0.0
8
0.0 1.0 1.0 0.0 1.0 0.0 1.0 0.0
8
0.968789 0.0312112 0.361197 0.638803 0.547089 0.452911 0.422349 0.577651
8
0.0 1.0 1.0 0.0 0.0 1.0 0.0 1.0
8
1.0 0.0 0.0 1.0 1.0 0.0 1.0 0.0
8
0.0 1.0 1.0 0.0 1.0 0.0 1.0 0.0
8
1.0 0.0 0.0 1.0 1.0 0.0 0.0 1.0
8
0.273751 0.726249 0.223992 0.776008 0.475401 0.524599 0.451752 0.548248
8
0.44419 0.55581 0.812949 0.187051 0.494046 0.505954 0.866539 0.133461
8
1.0 0.0 1.0 0.0 1.0 0.0 0.0 1.0
8
1.0 0.0 1.0 0.0 1.0 0.0 0.0 1.0
8
1.0 0.0 0.0 1.0 1.0 0.0 0.0 1.0
8
1.0 0.0 1.0 0.0 1.0 0.0 0.0 1.0
8
0.789431 0.210569 0.880928 0.119072 0.745899 0.254101 0.264832 0.735168
8
0.0 1.0 0.0 1.0 0.0 1.0 1.0 0.0
8
0.166221 0.833779 0.845107 0.154893 0.0948743 0.905126 0.328548 0.671452
8
1.0 0.0 0.0 1.0 0.0 1.0 0.0 1.0
4
0.20746 0.79254 0.225068 0.774932
8
0.685159 0.314841 0.549027 0.450973 0.0147076 0.985292 0.477415 0.522585
8
0.0 1.0 1.0 0.0 1.0 0.0 0.0 1.0
8
0.350642 0.649358 0.191257 0.808743 0.298199 0.701801 0.0434987 0.956501
8
0.443828 0.556172 0.230401 0.769599 0.475838 0.524162 0.610049 0.389951
8
0.0 1.0 1.0 0.0 0.0 1.0 0.0 1.0
8
0.433497 0.566503 0.0775169 0.922483 0.291509 0.708491 0.640957 0.359043
8
0.0 1.0 0.0 1.0 1.0 0.0 1.0 0.0
8
0.934448 0.0655515 0.987445 0.0125553 0.888122 0.111878 0.539192 0.460808
8
0.853642 0.146358 0.889834 0.110166 0.105128 0.894872 0.151841 0.848159
8
0.00540661 0.994593 0.595669 0.404331 0.163734 0.836266 0.481245 0.518755
8
0.0 1.0 1.0 0.0 0.0 1.0 0.0 1.0
8
0.808573 0.191427 0.155064 0.844936 0.0362555 0.963744 0.100082 0.899918
8
0.338841 0.661159 0.935824 0.0641761 0.122137 0.877863 0.190453 0.809547
8
0.925667 0.0743328 0.124902 0.875098 0.773718 0.226282 0.813789 0.186211
8
0.687589 0.312411 0.667431 0.332569 0.553928 0.446072 0.792717 0.207283
8
0.487261 0.512739 0.798124 0.201876 0.414941 0.585059 0.650995 0.349005
8
1.0 0.0 1.0 0.0 0.0 1.0 1.0 0.0
8
0.290065 0.709935 0.573548 0.426452 0.766869 0.233131 0.326321 0.673679
4
0.56289 0.43711 0.665162 0.334838
8
0.685027 0.314973 0.855615 0.144385 0.395727 0.604273 0.610694 0.389306
8
0.169445 0.830555 0.424484 0.575516 0.64461 0.35539 0.857034 0.142966
8
1.0 0.0 1.0 0.0 1.0 0.0 0.0 1.0
8
0.0 1.0 1.0 0.0 0.0 1.0 1.0 0.0
8
0.0 1.0 1.0 0.0 1.0 0.0 1.0 0.0
8
1.0 0.0 0.0 1.0 0.0 1.0 0.0 1.0
8
0.0 1.0 1.0 0.0 0.0 1.0 0.0 1.0
8
1.0 0.0 1.0 0.0 1.0 0.0 0.0 1.0
8
0.0193963 0.980604 0.64035 0.35965 0.891902 0.108098 0.705195 0.294805
8
0.0 1.0 0.0 1.0 1.0 0.0 0.0 1.0
8
0.876579 0.123421 0.107856 0.892144 0.222673 0.777327 0.161889 0.838111
8
0.897628 0.102372 0.120828 0.879172 0.882156 0.117844 0.237746 0.762254
8
0.735779 0.264221 0.433478 0.566522 0.653341 0.346659 0.200096 0.799904
8
0.786906 0.213094 0.088896 0.911104 0.430585 0.569415 0.777505 0.222495
8
1.0 0.0 0.0 1.0 0.0 1.0 0.0 1.0
8
0.0 1.0 0.0 1.0 1.0 0.0 1.0 0.0
8
0.0 1.0 1.0 0.0 0.0 1.0 0.0 1.0
8
0.0 1.0 1.0 0.0 0.0 1.0 1.0 0.0
4
1.0 0.0 0.0 1.0
8
0.84622 0.15378 0.105631 0.894369 0.596837 0.403163 0.633127 0.366873
8
1.0 0.0 1.0 0.0 0.0 1.0 1.0 0.0
8
0.225651 0.774349 0.632579 0.367421 0.334568 0.665432 0.405194 0.594806
8
0.656117 0.343883 0.749555 0.250445 0.295927 0.704073 0.851703 0.148297
8
0.869967 0.130033 0.269962 0.730038 0.353324 0.646676 0.157568 0.842432
8
0.856982 0.143018 0.327325 0.672675 0.139482 0.860518 0.0498612 0.950139
8
1.0 0.0 0.0 1.0 1.0 0.0 1.0 0.0
8
0.533019 0.466981 0.750852 0.249148 0.93984 0.0601598 0.797158 0.202842
8
1.0 0.0 0.0 1.0 1.0 0.0 1.0 0.0
8
1.0 0.0 0.0 1.0 0.0 1.0 0.0 1.0
8
0.148054 0.851946 0.856471 0.143529 0.880677 0.119323 0.501378 0.498622
8
0.0 1.0 0.0 1.0 1.0 0.0 0.0 1.0
8
0.0 1.0 1.0 0.0 0.0 1.0 1.0 0.0
8
1.0 0.0 1.0 0.0 0.0 1.0 1.0 0.0
8
0.0 1.0 0.0 1.0 0.0 1.0 1.0 0.0
8
0.693706 0.306294 0.986545 0.0134549 0.403589 0.596411 0.871265 0.128735
8
0.0143041 0.985696 0.0193183 0.980682 0.829519 0.170481 0.894981 0.105019
8
0.843558 0.156442 0.361507 0.638493 0.879057 0.120943 0.184922 0.815078
4
0.287279 0.712721 0.759147 0.240853
8
0.591582 0.408418 0.671864 0.328136 0.156145 0.843855 0.425093 0.574907
8
0.0 1.0 1.0 0.0 1.0 0.0 0.0 1.0
8
0.626197 0.373803 0.0941323 0.905868 0.384701 0.615299 0.319903 0.680097
8
1.0 0.0 1.0 0.0 1.0 0.0 0.0 1.0
8
1.0 0.0 1.0 0.0 0.0 1.0 1.0 0.0
8
0.0 1.0 1.0 0.0 0.0 1.0 1.0 0.0
8
0.726712 0.273288 0.4891 0.5109 0.342738 0.657262 0.882857 0.117143
8
0.460338 0.539662 0.245884 0.754116 0.112638 0.887362 0.820833 0.179167
8
1.0 0.0 0.0 1.0 0.0 1.0 0.0 1.0
8
0.218857 0.781143 0.0257528 0.974247 0.958099 0.041901 0.272583 0.727417
8
0.168585 0.831415 0.155828 0.844172 0.52592 0.47408 0.899767 0.100233
8
0.585002 0.414998 0.510006 0.489994 0.794358 0.205642 0.611598 0.388402
8
1.0 0.0 0.0 1.0 1.0 0.0 0.0 1.0
8
1.0 0.0 0.0 1.0 0.0 1.0 0.0 1.0
8
1.0 0.0 1.0 0.0 0.0 1.0 1.0 0.0
8
0.0 1.0 0.0 1.0 1.0 0.0 1.0 0.0
8
1.0 0.0 0.0 1.0 1.0 0.0 1.0 0.0
8
0.0 1.0 1.0 0.0 0.0 1.0 0.0 1.0
4
0.247082 0.752918 0.438769 0.561231
8
0.143705 0.856295 0.246739 0.753261 0.149777 0.850223 0.954522 0.045478
8
0.616828 0.383172 0.877977 0.122023 0.604188 0.395812 0.127926 0.872074
8
0.140358 0.859642 0.777204 0.222796 0.667878 0.332122 0.44346 0.55654
8
0.707312 0.292688 0.704661 0.295339 0.786057 0.213943 0.575093 0.424907
8
0.0 1.0 1.0 0.0 1.0 0.0 0.0 1.0
8
0.303557 0.696443 0.23532 0.76468 0.537798 0.462202 0.550638 0.449362
8
0.466409 0.533591 0.694343 0.305657 0.920827 0.0791729 0.616186 0.383814
8
0.435874 0.564126 0.233014 0.766986 0.526843 0.473157 0.0400619 0.959938
8
1.0 0.0 1.0 0.0 0.0 1.0 1.0 0.0
8
0.783483 0.216517 0.556229 0.443771 0.328541 0.671459 0.569541 0.430459
8
0.0 1.0 0.0 1.0 0.0 1.0 1.0 0.0
8
0.0476135 0.952386 0.230543 0.769457 0.149247 0.850753 0.585412 0.414588
8
0.823335 0.176665 0.051821 0.948179 0.475525 0.524475 0.744162 0.255838
8
0.12439 0.87561 0.180036 0.819964 0.901021 0.0989785 0.651233 0.348767
8
0.0 1.0 1.0 0.0 1.0 0.0 1.0 0.0
8
0.0243981 0.975602 0.18359 0.81641 0.237416 0.762584 0.352939 0.647061
8
0.368738 0.631262 0.815927 0.184073 0.405275 0.594725 0.468854 0.531146
8
0.319202 0.680798 0.516468 0.483532 0.973457 0.0265433 0.468449 0.531551
4
1.0 0.0 0.0 1.0
8
1.0 0.0 0.0 1.0 0.0 1.0 1.0 0.0
8
1.0 0.0 1.0 0.0 0.0 1.0 1.0 0.0
8
0.838058 0.161942 0.836599 0.163401 0.384798 0.615202 0.519246 0.480754
8
0.568387 0.431613 0.756663 0.243337 0.213936 0.786064 0.321517 0.678483
8
0.0 1.0 1.0 0.0 0.0 1.0 1.0 0.0
8
1.0 0.0 0.0 1.0 1.0 0.0 1.0 0.0
8
0.806227 0.193773 0.366304 0.633696 0.731035 0.268965 0.842173 0.157827
8
0.0 1.0 1.0 0.0 0.0 1.0 0.0 1.0
8
0.0 1.0 1.0 0.0 0.0 1.0 0.0 1.0
8
1.0 0.0 1.0 0.0 1.0 0.0 0.0 1.0
8
0.0 1.0 1.0 0.0 0.0 1.0 0.0 1.0
8
1.0 0.0 0.0 1.0 0.0 1.0 0.0 1.0
8
1.0 0.0 0.0 1.0 0.0 1.0 0.0 1.0
8
1.0 0.0 0.0 1.0 0.0 1.0 0.0 1.0
8
1.0 0.0 0.0 1.0 1.0 0.0 1.0 0.0
8
0.741625 0.258375 0.180824 0.819176 0.737668 0.262332 0.946968 0.0530321
8
0.907804 0.0921961 0.277712 0.722288 0.0222228 0.977777 0.804732 0.195268
8
1.0 0.0 0.0 1.0 1.0 0.0 1.0 0.0
4
1.0 0.0 0.0 1.0
8
0.468612 0.531388 0.10139 0.89861 0.827331 0.172669 0.574377 0.425623
8
0.0994668 0.900533 0.738298 0.261702 0.617419 0.382581 0.462978 0.537022
8
0.0 1.0 1.0 0.0 0.0 1.0 1.0 0.0
8
0.0 1.0 0.0 1.0 1.0 0.0 0.0 1.0
8
0.722228 0.277772 0.175084 0.824916 0.565492 0.434508 0.924939 0.0750611
8
1.0 0.0 1.0 0.0 1.0 0.0 0.0 1.0
8
0.23177 0.76823 0.986778 0.0132221 0.751523 0.248477 0.0591005 0.940899
8
0.655557 0.344443 0.158567 0.841433 0.299453 0.700547 0.272975 0.727025
8
0.695907 0.304093 0.499213 0.500787 0.377469 0.622531 0.0813536 0.918646
8
0.875017 0.124983 0.647623 0.352377 0.467457 0.532543 0.319533 0.680467
8
0.228216 0.771784 0.0417613 0.958239 0.975569 0.0244312 0.793708 0.206292
8
0.381283 0.618717 0.106854 0.893146 0.130073 0.869927 0.972269 0.0277309
8
0.780205 0.219795 0.204039 0.795961 0.611798 0.388202 0.531728 0.468272
8
1.0 0.0 0.0 1.0 0.0 1.0 1.0 0.0
8
0.0 1.0 0.0 1.0 1.0 0.0 1.0 0.0
8
1.0 0.0 0.0 1.0 0.0 1.0 0.0 1.0
8
0.697775 0.302225 0.269647 0.730353 0.657032 0.342968 0.673344 0.326656
8
1.0 0.0 0.0 1.0 1.0 0.0 1.0 0.0